SCIP version 5.0.0 [precision: 8 byte] [memory: block] [mode: optimized] [LP solver: NONE] [GitHash: 3bbd232]
Copyright (C) 2002-2017 Konrad-Zuse-Zentrum fuer Informationstechnik Berlin (ZIB)

External codes: 
  Readline EditLine w  GNU library for command line editing (gnu.org/s/readline)
  CppAD 20160000.1     Algorithmic Differentiation of C++ algorithms developed by B. Bell (www.coin-or.org/CppAD)
  ZLIB 1.2.5           General purpose compression library by J. Gailly and M. Adler (zlib.net)
  GMP 6.1.2            GNU Multiple Precision Arithmetic Library developed by T. Granlund (gmplib.org)

user parameter file <scip.set> not found - using default parameters

read problem <../../Split_data/output/biodeg/4/3_sample_biodeg.logreg>
============

File name	:	../../Split_data/output/biodeg/4/3_sample_biodeg.logreg
Problem name 	:	3_sample_biodeg
Number of data	:	844
Number of var	:	41
The given data has linear independence

[dim=1] time: 0.029425
[dim=2] time: 0.059666
[dim=3] time: 0.094002
[dim=4] time: 0.124774
[dim=5] time: 0.15536
[dim=6] time: 0.192493
[dim=7] time: 0.222045
[dim=8] time: 0.250323
[dim=9] time: 0.270171
[dim=10] time: 0.290212
[dim=11] time: 0.309941
[dim=12] time: 0.328159
[dim=13] time: 0.346654
[dim=14] time: 0.366746
[dim=15] time: 0.387396
[dim=16] time: 0.407826
[dim=17] time: 0.428023
[dim=18] time: 0.45388
[dim=19] time: 0.473055
[dim=20] time: 0.492893
[dim=21] time: 0.511181
[dim=22] time: 0.528849
[dim=23] time: 0.547912
[dim=24] time: 0.562544
[dim=25] Time of forward = 0.575795sec.
AIC: 533.928
k: 24

[dim=41] time: 0.144539
[dim=40] time: 0.181785
[dim=39] time: 0.236692
[dim=38] time: 0.289815
[dim=37] time: 0.332358
[dim=36] time: 0.38447
[dim=35] time: 0.428103
[dim=34] time: 0.479124
[dim=33] time: 0.518925
[dim=32] time: 0.561477
[dim=31] time: 0.600982
[dim=30] time: 0.635881
[dim=29] time: 0.669053
[dim=28] time: 0.703769
[dim=27] time: 0.737208
[dim=26] time: 0.765484
[dim=25] time: 0.791564
[dim=24] time: 0.819396
[dim=23] Time of backward = 0.84667sec.
AIC: 532.506
k: 24
